language ESSENCE' 1.0
$ loaded file: carseqdata/csplib-instance-50
letting numcars=200
letting numclasses=26
letting numoptions=5
letting optMax=[1, 2, 1, 2, 1]
letting windowSize=[2, 3, 3, 5, 5]
letting numberPerClass=[6, 8, 39, 14, 1, 15, 13, 4, 11, 9, 1, 9, 4, 2, 1, 6, 3, 2, 14, 20, 3, 3, 1, 1, 1, 9]
letting optionsRequired=[[1, 0, 1, 0, 0], [1, 0, 0, 1, 0], [0, 1, 0, 0, 0], [0, 1, 0, 1, 0], [1, 0, 0, 1, 1], [1, 1, 0, 0, 0], [0, 0, 1, 0, 0], [1, 1, 1, 1, 0], [0, 0, 0, 0, 1], [0, 1, 1, 0, 0], [1, 0, 1, 0, 1], [1, 1, 0, 1, 0], [0, 0, 1, 0, 1], [1, 1, 0, 0, 1], [1, 1, 1, 0, 1], [0, 0, 1, 1, 0], [1, 0, 0, 0, 1], [0, 0, 0, 1, 1], [0, 0, 0, 1, 0], [1, 0, 0, 0, 0], [0, 1, 1, 1, 0], [1, 0, 1, 1, 0], [1, 1, 0, 1, 1], [1, 1, 1, 0, 0], [0, 0, 1, 0, 1], [0, 1, 0, 0, 0]]
